p cnf 81 1071
1 2 3 4 5 6 7 8 9 0
10 11 12 13 14 15 16 17 18 0
19 20 21 22 23 24 25 26 27 0
28 29 30 31 32 33 34 35 36 0
37 38 39 40 41 42 43 44 45 0
46 47 48 49 50 51 52 53 54 0
55 56 57 58 59 60 61 62 63 0
64 65 66 67 68 69 70 71 72 0
73 74 75 76 77 78 79 80 81 0
-1 -2 0
-1 -3 0
-1 -4 0
-1 -5 0
-1 -6 0
-1 -7 0
-1 -8 0
-1 -9 0
-2 -3 0
-2 -4 0
-2 -5 0
-2 -6 0
-2 -7 0
-2 -8 0
-2 -9 0
-3 -4 0
-3 -5 0
-3 -6 0
-3 -7 0
-3 -8 0
-3 -9 0
-4 -5 0
-4 -6 0
-4 -7 0
-4 -8 0
-4 -9 0
-5 -6 0
-5 -7 0
-5 -8 0
-5 -9 0
-6 -7 0
-6 -8 0
-6 -9 0
-7 -8 0
-7 -9 0
-8 -9 0
-10 -11 0
-10 -12 0
-10 -13 0
-10 -14 0
-10 -15 0
-10 -16 0
-10 -17 0
-10 -18 0
-11 -12 0
-11 -13 0
-11 -14 0
-11 -15 0
-11 -16 0
-11 -17 0
-11 -18 0
-12 -13 0
-12 -14 0
-12 -15 0
-12 -16 0
-12 -17 0
-12 -18 0
-13 -14 0
-13 -15 0
-13 -16 0
-13 -17 0
-13 -18 0
-14 -15 0
-14 -16 0
-14 -17 0
-14 -18 0
-15 -16 0
-15 -17 0
-15 -18 0
-16 -17 0
-16 -18 0
-17 -18 0
-19 -20 0
-19 -21 0
-19 -22 0
-19 -23 0
-19 -24 0
-19 -25 0
-19 -26 0
-19 -27 0
-20 -21 0
-20 -22 0
-20 -23 0
-20 -24 0
-20 -25 0
-20 -26 0
-20 -27 0
-21 -22 0
-21 -23 0
-21 -24 0
-21 -25 0
-21 -26 0
-21 -27 0
-22 -23 0
-22 -24 0
-22 -25 0
-22 -26 0
-22 -27 0
-23 -24 0
-23 -25 0
-23 -26 0
-23 -27 0
-24 -25 0
-24 -26 0
-24 -27 0
-25 -26 0
-25 -27 0
-26 -27 0
-28 -29 0
-28 -30 0
-28 -31 0
-28 -32 0
-28 -33 0
-28 -34 0
-28 -35 0
-28 -36 0
-29 -30 0
-29 -31 0
-29 -32 0
-29 -33 0
-29 -34 0
-29 -35 0
-29 -36 0
-30 -31 0
-30 -32 0
-30 -33 0
-30 -34 0
-30 -35 0
-30 -36 0
-31 -32 0
-31 -33 0
-31 -34 0
-31 -35 0
-31 -36 0
-32 -33 0
-32 -34 0
-32 -35 0
-32 -36 0
-33 -34 0
-33 -35 0
-33 -36 0
-34 -35 0
-34 -36 0
-35 -36 0
-37 -38 0
-37 -39 0
-37 -40 0
-37 -41 0
-37 -42 0
-37 -43 0
-37 -44 0
-37 -45 0
-38 -39 0
-38 -40 0
-38 -41 0
-38 -42 0
-38 -43 0
-38 -44 0
-38 -45 0
-39 -40 0
-39 -41 0
-39 -42 0
-39 -43 0
-39 -44 0
-39 -45 0
-40 -41 0
-40 -42 0
-40 -43 0
-40 -44 0
-40 -45 0
-41 -42 0
-41 -43 0
-41 -44 0
-41 -45 0
-42 -43 0
-42 -44 0
-42 -45 0
-43 -44 0
-43 -45 0
-44 -45 0
-46 -47 0
-46 -48 0
-46 -49 0
-46 -50 0
-46 -51 0
-46 -52 0
-46 -53 0
-46 -54 0
-47 -48 0
-47 -49 0
-47 -50 0
-47 -51 0
-47 -52 0
-47 -53 0
-47 -54 0
-48 -49 0
-48 -50 0
-48 -51 0
-48 -52 0
-48 -53 0
-48 -54 0
-49 -50 0
-49 -51 0
-49 -52 0
-49 -53 0
-49 -54 0
-50 -51 0
-50 -52 0
-50 -53 0
-50 -54 0
-51 -52 0
-51 -53 0
-51 -54 0
-52 -53 0
-52 -54 0
-53 -54 0
-55 -56 0
-55 -57 0
-55 -58 0
-55 -59 0
-55 -60 0
-55 -61 0
-55 -62 0
-55 -63 0
-56 -57 0
-56 -58 0
-56 -59 0
-56 -60 0
-56 -61 0
-56 -62 0
-56 -63 0
-57 -58 0
-57 -59 0
-57 -60 0
-57 -61 0
-57 -62 0
-57 -63 0
-58 -59 0
-58 -60 0
-58 -61 0
-58 -62 0
-58 -63 0
-59 -60 0
-59 -61 0
-59 -62 0
-59 -63 0
-60 -61 0
-60 -62 0
-60 -63 0
-61 -62 0
-61 -63 0
-62 -63 0
-64 -65 0
-64 -66 0
-64 -67 0
-64 -68 0
-64 -69 0
-64 -70 0
-64 -71 0
-64 -72 0
-65 -66 0
-65 -67 0
-65 -68 0
-65 -69 0
-65 -70 0
-65 -71 0
-65 -72 0
-66 -67 0
-66 -68 0
-66 -69 0
-66 -70 0
-66 -71 0
-66 -72 0
-67 -68 0
-67 -69 0
-67 -70 0
-67 -71 0
-67 -72 0
-68 -69 0
-68 -70 0
-68 -71 0
-68 -72 0
-69 -70 0
-69 -71 0
-69 -72 0
-70 -71 0
-70 -72 0
-71 -72 0
-73 -74 0
-73 -75 0
-73 -76 0
-73 -77 0
-73 -78 0
-73 -79 0
-73 -80 0
-73 -81 0
-74 -75 0
-74 -76 0
-74 -77 0
-74 -78 0
-74 -79 0
-74 -80 0
-74 -81 0
-75 -76 0
-75 -77 0
-75 -78 0
-75 -79 0
-75 -80 0
-75 -81 0
-76 -77 0
-76 -78 0
-76 -79 0
-76 -80 0
-76 -81 0
-77 -78 0
-77 -79 0
-77 -80 0
-77 -81 0
-78 -79 0
-78 -80 0
-78 -81 0
-79 -80 0
-79 -81 0
-80 -81 0
1 10 19 28 37 46 55 64 73 0
2 11 20 29 38 47 56 65 74 0
3 12 21 30 39 48 57 66 75 0
4 13 22 31 40 49 58 67 76 0
5 14 23 32 41 50 59 68 77 0
6 15 24 33 42 51 60 69 78 0
7 16 25 34 43 52 61 70 79 0
8 17 26 35 44 53 62 71 80 0
9 18 27 36 45 54 63 72 81 0
-1 -10 0
-1 -19 0
-1 -28 0
-1 -37 0
-1 -46 0
-1 -55 0
-1 -64 0
-1 -73 0
-10 -19 0
-10 -28 0
-10 -37 0
-10 -46 0
-10 -55 0
-10 -64 0
-10 -73 0
-19 -28 0
-19 -37 0
-19 -46 0
-19 -55 0
-19 -64 0
-19 -73 0
-28 -37 0
-28 -46 0
-28 -55 0
-28 -64 0
-28 -73 0
-37 -46 0
-37 -55 0
-37 -64 0
-37 -73 0
-46 -55 0
-46 -64 0
-46 -73 0
-55 -64 0
-55 -73 0
-64 -73 0
-2 -11 0
-2 -20 0
-2 -29 0
-2 -38 0
-2 -47 0
-2 -56 0
-2 -65 0
-2 -74 0
-11 -20 0
-11 -29 0
-11 -38 0
-11 -47 0
-11 -56 0
-11 -65 0
-11 -74 0
-20 -29 0
-20 -38 0
-20 -47 0
-20 -56 0
-20 -65 0
-20 -74 0
-29 -38 0
-29 -47 0
-29 -56 0
-29 -65 0
-29 -74 0
-38 -47 0
-38 -56 0
-38 -65 0
-38 -74 0
-47 -56 0
-47 -65 0
-47 -74 0
-56 -65 0
-56 -74 0
-65 -74 0
-3 -12 0
-3 -21 0
-3 -30 0
-3 -39 0
-3 -48 0
-3 -57 0
-3 -66 0
-3 -75 0
-12 -21 0
-12 -30 0
-12 -39 0
-12 -48 0
-12 -57 0
-12 -66 0
-12 -75 0
-21 -30 0
-21 -39 0
-21 -48 0
-21 -57 0
-21 -66 0
-21 -75 0
-30 -39 0
-30 -48 0
-30 -57 0
-30 -66 0
-30 -75 0
-39 -48 0
-39 -57 0
-39 -66 0
-39 -75 0
-48 -57 0
-48 -66 0
-48 -75 0
-57 -66 0
-57 -75 0
-66 -75 0
-4 -13 0
-4 -22 0
-4 -31 0
-4 -40 0
-4 -49 0
-4 -58 0
-4 -67 0
-4 -76 0
-13 -22 0
-13 -31 0
-13 -40 0
-13 -49 0
-13 -58 0
-13 -67 0
-13 -76 0
-22 -31 0
-22 -40 0
-22 -49 0
-22 -58 0
-22 -67 0
-22 -76 0
-31 -40 0
-31 -49 0
-31 -58 0
-31 -67 0
-31 -76 0
-40 -49 0
-40 -58 0
-40 -67 0
-40 -76 0
-49 -58 0
-49 -67 0
-49 -76 0
-58 -67 0
-58 -76 0
-67 -76 0
-5 -14 0
-5 -23 0
-5 -32 0
-5 -41 0
-5 -50 0
-5 -59 0
-5 -68 0
-5 -77 0
-14 -23 0
-14 -32 0
-14 -41 0
-14 -50 0
-14 -59 0
-14 -68 0
-14 -77 0
-23 -32 0
-23 -41 0
-23 -50 0
-23 -59 0
-23 -68 0
-23 -77 0
-32 -41 0
-32 -50 0
-32 -59 0
-32 -68 0
-32 -77 0
-41 -50 0
-41 -59 0
-41 -68 0
-41 -77 0
-50 -59 0
-50 -68 0
-50 -77 0
-59 -68 0
-59 -77 0
-68 -77 0
-6 -15 0
-6 -24 0
-6 -33 0
-6 -42 0
-6 -51 0
-6 -60 0
-6 -69 0
-6 -78 0
-15 -24 0
-15 -33 0
-15 -42 0
-15 -51 0
-15 -60 0
-15 -69 0
-15 -78 0
-24 -33 0
-24 -42 0
-24 -51 0
-24 -60 0
-24 -69 0
-24 -78 0
-33 -42 0
-33 -51 0
-33 -60 0
-33 -69 0
-33 -78 0
-42 -51 0
-42 -60 0
-42 -69 0
-42 -78 0
-51 -60 0
-51 -69 0
-51 -78 0
-60 -69 0
-60 -78 0
-69 -78 0
-7 -16 0
-7 -25 0
-7 -34 0
-7 -43 0
-7 -52 0
-7 -61 0
-7 -70 0
-7 -79 0
-16 -25 0
-16 -34 0
-16 -43 0
-16 -52 0
-16 -61 0
-16 -70 0
-16 -79 0
-25 -34 0
-25 -43 0
-25 -52 0
-25 -61 0
-25 -70 0
-25 -79 0
-34 -43 0
-34 -52 0
-34 -61 0
-34 -70 0
-34 -79 0
-43 -52 0
-43 -61 0
-43 -70 0
-43 -79 0
-52 -61 0
-52 -70 0
-52 -79 0
-61 -70 0
-61 -79 0
-70 -79 0
-8 -17 0
-8 -26 0
-8 -35 0
-8 -44 0
-8 -53 0
-8 -62 0
-8 -71 0
-8 -80 0
-17 -26 0
-17 -35 0
-17 -44 0
-17 -53 0
-17 -62 0
-17 -71 0
-17 -80 0
-26 -35 0
-26 -44 0
-26 -53 0
-26 -62 0
-26 -71 0
-26 -80 0
-35 -44 0
-35 -53 0
-35 -62 0
-35 -71 0
-35 -80 0
-44 -53 0
-44 -62 0
-44 -71 0
-44 -80 0
-53 -62 0
-53 -71 0
-53 -80 0
-62 -71 0
-62 -80 0
-71 -80 0
-9 -18 0
-9 -27 0
-9 -36 0
-9 -45 0
-9 -54 0
-9 -63 0
-9 -72 0
-9 -81 0
-18 -27 0
-18 -36 0
-18 -45 0
-18 -54 0
-18 -63 0
-18 -72 0
-18 -81 0
-27 -36 0
-27 -45 0
-27 -54 0
-27 -63 0
-27 -72 0
-27 -81 0
-36 -45 0
-36 -54 0
-36 -63 0
-36 -72 0
-36 -81 0
-45 -54 0
-45 -63 0
-45 -72 0
-45 -81 0
-54 -63 0
-54 -72 0
-54 -81 0
-63 -72 0
-63 -81 0
-72 -81 0
-1 -20 0
-2 -21 0
-3 -22 0
-4 -23 0
-5 -24 0
-6 -25 0
-7 -26 0
-8 -27 0
-9 -19 0
-1 -29 0
-2 -30 0
-3 -31 0
-4 -32 0
-5 -33 0
-6 -34 0
-7 -35 0
-8 -36 0
-9 -28 0
-1 -38 0
-2 -39 0
-3 -40 0
-4 -41 0
-5 -42 0
-6 -43 0
-7 -44 0
-8 -45 0
-9 -37 0
-1 -47 0
-2 -48 0
-3 -49 0
-4 -50 0
-5 -51 0
-6 -52 0
-7 -53 0
-8 -54 0
-9 -46 0
-1 -56 0
-2 -57 0
-3 -58 0
-4 -59 0
-5 -60 0
-6 -61 0
-7 -62 0
-8 -63 0
-9 -55 0
-1 -74 0
-2 -75 0
-3 -76 0
-4 -77 0
-5 -78 0
-6 -79 0
-7 -80 0
-8 -81 0
-9 -73 0
-10 -2 0
-11 -3 0
-12 -4 0
-13 -5 0
-14 -6 0
-15 -7 0
-16 -8 0
-17 -9 0
-18 -1 0
-10 -20 0
-11 -21 0
-12 -22 0
-13 -23 0
-14 -24 0
-15 -25 0
-16 -26 0
-17 -27 0
-18 -19 0
-10 -29 0
-11 -30 0
-12 -31 0
-13 -32 0
-14 -33 0
-15 -34 0
-16 -35 0
-17 -36 0
-18 -28 0
-10 -38 0
-11 -39 0
-12 -40 0
-13 -41 0
-14 -42 0
-15 -43 0
-16 -44 0
-17 -45 0
-18 -37 0
-10 -47 0
-11 -48 0
-12 -49 0
-13 -50 0
-14 -51 0
-15 -52 0
-16 -53 0
-17 -54 0
-18 -46 0
-10 -56 0
-11 -57 0
-12 -58 0
-13 -59 0
-14 -60 0
-15 -61 0
-16 -62 0
-17 -63 0
-18 -55 0
-10 -65 0
-11 -66 0
-12 -67 0
-13 -68 0
-14 -69 0
-15 -70 0
-16 -71 0
-17 -72 0
-18 -64 0
-10 -74 0
-11 -75 0
-12 -76 0
-13 -77 0
-14 -78 0
-15 -79 0
-16 -80 0
-17 -81 0
-18 -73 0
-19 -2 0
-20 -3 0
-21 -4 0
-22 -5 0
-23 -6 0
-24 -7 0
-25 -8 0
-26 -9 0
-27 -1 0
-19 -11 0
-20 -12 0
-21 -13 0
-22 -14 0
-23 -15 0
-24 -16 0
-25 -17 0
-26 -18 0
-27 -10 0
-19 -29 0
-20 -30 0
-21 -31 0
-22 -32 0
-23 -33 0
-24 -34 0
-25 -35 0
-26 -36 0
-27 -28 0
-19 -38 0
-20 -39 0
-21 -40 0
-22 -41 0
-23 -42 0
-24 -43 0
-25 -44 0
-26 -45 0
-27 -37 0
-19 -47 0
-20 -48 0
-21 -49 0
-22 -50 0
-23 -51 0
-24 -52 0
-25 -53 0
-26 -54 0
-27 -46 0
-19 -56 0
-20 -57 0
-21 -58 0
-22 -59 0
-23 -60 0
-24 -61 0
-25 -62 0
-26 -63 0
-27 -55 0
-19 -65 0
-20 -66 0
-21 -67 0
-22 -68 0
-23 -69 0
-24 -70 0
-25 -71 0
-26 -72 0
-27 -64 0
-19 -74 0
-20 -75 0
-21 -76 0
-22 -77 0
-23 -78 0
-24 -79 0
-25 -80 0
-26 -81 0
-27 -73 0
-28 -2 0
-29 -3 0
-30 -4 0
-31 -5 0
-32 -6 0
-33 -7 0
-34 -8 0
-35 -9 0
-36 -1 0
-28 -11 0
-29 -12 0
-30 -13 0
-31 -14 0
-32 -15 0
-33 -16 0
-34 -17 0
-35 -18 0
-36 -10 0
-28 -20 0
-29 -21 0
-30 -22 0
-31 -23 0
-32 -24 0
-33 -25 0
-34 -26 0
-35 -27 0
-36 -19 0
-28 -38 0
-29 -39 0
-30 -40 0
-31 -41 0
-32 -42 0
-33 -43 0
-34 -44 0
-35 -45 0
-36 -37 0
-28 -47 0
-29 -48 0
-30 -49 0
-31 -50 0
-32 -51 0
-33 -52 0
-34 -53 0
-35 -54 0
-36 -46 0
-28 -56 0
-29 -57 0
-30 -58 0
-31 -59 0
-32 -60 0
-33 -61 0
-34 -62 0
-35 -63 0
-36 -55 0
-28 -65 0
-29 -66 0
-30 -67 0
-31 -68 0
-32 -69 0
-33 -70 0
-34 -71 0
-35 -72 0
-36 -64 0
-28 -74 0
-29 -75 0
-30 -76 0
-31 -77 0
-32 -78 0
-33 -79 0
-34 -80 0
-35 -81 0
-36 -73 0
-37 -2 0
-38 -3 0
-39 -4 0
-40 -5 0
-41 -6 0
-42 -7 0
-43 -8 0
-44 -9 0
-45 -1 0
-37 -11 0
-38 -12 0
-39 -13 0
-40 -14 0
-41 -15 0
-42 -16 0
-43 -17 0
-44 -18 0
-45 -10 0
-37 -20 0
-38 -21 0
-39 -22 0
-40 -23 0
-41 -24 0
-42 -25 0
-43 -26 0
-44 -27 0
-45 -19 0
-37 -29 0
-38 -30 0
-39 -31 0
-40 -32 0
-41 -33 0
-42 -34 0
-43 -35 0
-44 -36 0
-45 -28 0
-37 -47 0
-38 -48 0
-39 -49 0
-40 -50 0
-41 -51 0
-42 -52 0
-43 -53 0
-44 -54 0
-45 -46 0
-37 -56 0
-38 -57 0
-39 -58 0
-40 -59 0
-41 -60 0
-42 -61 0
-43 -62 0
-44 -63 0
-45 -55 0
-37 -65 0
-38 -66 0
-39 -67 0
-40 -68 0
-41 -69 0
-42 -70 0
-43 -71 0
-44 -72 0
-45 -64 0
-37 -74 0
-38 -75 0
-39 -76 0
-40 -77 0
-41 -78 0
-42 -79 0
-43 -80 0
-44 -81 0
-45 -73 0
-46 -2 0
-47 -3 0
-48 -4 0
-49 -5 0
-50 -6 0
-51 -7 0
-52 -8 0
-53 -9 0
-54 -1 0
-46 -11 0
-47 -12 0
-48 -13 0
-49 -14 0
-50 -15 0
-51 -16 0
-52 -17 0
-53 -18 0
-54 -10 0
-46 -20 0
-47 -21 0
-48 -22 0
-49 -23 0
-50 -24 0
-51 -25 0
-52 -26 0
-53 -27 0
-54 -19 0
-46 -29 0
-47 -30 0
-48 -31 0
-49 -32 0
-50 -33 0
-51 -34 0
-52 -35 0
-53 -36 0
-54 -28 0
-46 -38 0
-47 -39 0
-48 -40 0
-49 -41 0
-50 -42 0
-51 -43 0
-52 -44 0
-53 -45 0
-54 -37 0
-46 -56 0
-47 -57 0
-48 -58 0
-49 -59 0
-50 -60 0
-51 -61 0
-52 -62 0
-53 -63 0
-54 -55 0
-46 -65 0
-47 -66 0
-48 -67 0
-49 -68 0
-50 -69 0
-51 -70 0
-52 -71 0
-53 -72 0
-54 -64 0
-46 -74 0
-47 -75 0
-48 -76 0
-49 -77 0
-50 -78 0
-51 -79 0
-52 -80 0
-53 -81 0
-54 -73 0
-55 -2 0
-56 -3 0
-57 -4 0
-58 -5 0
-59 -6 0
-60 -7 0
-61 -8 0
-62 -9 0
-63 -1 0
-55 -11 0
-56 -12 0
-57 -13 0
-58 -14 0
-59 -15 0
-60 -16 0
-61 -17 0
-62 -18 0
-63 -10 0
-55 -20 0
-56 -21 0
-57 -22 0
-58 -23 0
-59 -24 0
-60 -25 0
-61 -26 0
-62 -27 0
-63 -19 0
-55 -29 0
-56 -30 0
-57 -31 0
-58 -32 0
-59 -33 0
-60 -34 0
-61 -35 0
-62 -36 0
-63 -28 0
-55 -38 0
-56 -39 0
-57 -40 0
-58 -41 0
-59 -42 0
-60 -43 0
-61 -44 0
-62 -45 0
-63 -37 0
-55 -47 0
-56 -48 0
-57 -49 0
-58 -50 0
-59 -51 0
-60 -52 0
-61 -53 0
-62 -54 0
-63 -46 0
-55 -65 0
-56 -66 0
-57 -67 0
-58 -68 0
-59 -69 0
-60 -70 0
-61 -71 0
-62 -72 0
-63 -64 0
-55 -74 0
-56 -75 0
-57 -76 0
-58 -77 0
-59 -78 0
-60 -79 0
-61 -80 0
-62 -81 0
-63 -73 0
-64 -2 0
-65 -3 0
-66 -4 0
-67 -5 0
-68 -6 0
-69 -7 0
-70 -8 0
-71 -9 0
-72 -1 0
-64 -11 0
-65 -12 0
-66 -13 0
-67 -14 0
-68 -15 0
-69 -16 0
-70 -17 0
-71 -18 0
-72 -10 0
-64 -20 0
-65 -21 0
-66 -22 0
-67 -23 0
-68 -24 0
-69 -25 0
-70 -26 0
-71 -27 0
-72 -19 0
-64 -29 0
-65 -30 0
-66 -31 0
-67 -32 0
-68 -33 0
-69 -34 0
-70 -35 0
-71 -36 0
-72 -28 0
-64 -38 0
-65 -39 0
-66 -40 0
-67 -41 0
-68 -42 0
-69 -43 0
-70 -44 0
-71 -45 0
-72 -37 0
-64 -47 0
-65 -48 0
-66 -49 0
-67 -50 0
-68 -51 0
-69 -52 0
-70 -53 0
-71 -54 0
-72 -46 0
-64 -56 0
-65 -57 0
-66 -58 0
-67 -59 0
-68 -60 0
-69 -61 0
-70 -62 0
-71 -63 0
-72 -55 0
-64 -74 0
-65 -75 0
-66 -76 0
-67 -77 0
-68 -78 0
-69 -79 0
-70 -80 0
-71 -81 0
-72 -73 0
-73 -2 0
-74 -3 0
-75 -4 0
-76 -5 0
-77 -6 0
-78 -7 0
-79 -8 0
-80 -9 0
-81 -1 0
-73 -11 0
-74 -12 0
-75 -13 0
-76 -14 0
-77 -15 0
-78 -16 0
-79 -17 0
-80 -18 0
-81 -10 0
-73 -20 0
-74 -21 0
-75 -22 0
-76 -23 0
-77 -24 0
-78 -25 0
-79 -26 0
-80 -27 0
-81 -19 0
-73 -29 0
-74 -30 0
-75 -31 0
-76 -32 0
-77 -33 0
-78 -34 0
-79 -35 0
-80 -36 0
-81 -28 0
-73 -38 0
-74 -39 0
-75 -40 0
-76 -41 0
-77 -42 0
-78 -43 0
-79 -44 0
-80 -45 0
-81 -37 0
-73 -47 0
-74 -48 0
-75 -49 0
-76 -50 0
-77 -51 0
-78 -52 0
-79 -53 0
-80 -54 0
-81 -46 0
-73 -56 0
-74 -57 0
-75 -58 0
-76 -59 0
-77 -60 0
-78 -61 0
-79 -62 0
-80 -63 0
-81 -55 0
-73 -65 0
-74 -66 0
-75 -67 0
-76 -68 0
-77 -69 0
-78 -70 0
-79 -71 0
-80 -72 0
-81 -64 0
-1 -11 0
-2 -12 0
-3 -13 0
-4 -14 0
-5 -15 0
-6 -16 0
-7 -17 0
-8 -18 0
-9 -10 0
-1 -20 0
-2 -21 0
-3 -22 0
-4 -23 0
-5 -24 0
-6 -25 0
-7 -26 0
-8 -27 0
-9 -19 0
-1 -29 0
-2 -30 0
-3 -31 0
-4 -32 0
-5 -33 0
-6 -34 0
-7 -35 0
-8 -36 0
-9 -28 0
-1 -38 0
-2 -39 0
-3 -40 0
-4 -41 0
-5 -42 0
-6 -43 0
-7 -44 0
-8 -45 0
-9 -37 0
-1 -47 0
-2 -48 0
-3 -49 0
-4 -50 0
-5 -51 0
-6 -52 0
-7 -53 0
-8 -54 0
-9 -46 0
-1 -56 0
-2 -57 0
-3 -58 0
-4 -59 0
-5 -60 0
-6 -61 0
-7 -62 0
-8 -63 0
-9 -55 0
-1 -65 0
-2 -66 0
-3 -67 0
-4 -68 0
-5 -69 0
-6 -70 0
-7 -71 0
-8 -72 0
-9 -64 0
-1 -74 0
-2 -75 0
-3 -76 0
-4 -77 0
-5 -78 0
-6 -79 0
-7 -80 0
-8 -81 0
-9 -73 0
-10 -2 0
-11 -3 0
-12 -4 0
-13 -5 0
-14 -6 0
-15 -7 0
-16 -8 0
-17 -9 0
-18 -1 0
-10 -20 0
-11 -21 0
-12 -22 0
-13 -23 0
-14 -24 0
-15 -25 0
-16 -26 0
-17 -27 0
-18 -19 0
-10 -38 0
-11 -39 0
-12 -40 0
-13 -41 0
-14 -42 0
-15 -43 0
-16 -44 0
-17 -45 0
-18 -37 0
-10 -56 0
-11 -57 0
-12 -58 0
-13 -59 0
-14 -60 0
-15 -61 0
-16 -62 0
-17 -63 0
-18 -55 0
-10 -74 0
-11 -75 0
-12 -76 0
-13 -77 0
-14 -78 0
-15 -79 0
-16 -80 0
-17 -81 0
-18 -73 0
-19 -2 0
-20 -3 0
-21 -4 0
-22 -5 0
-23 -6 0
-24 -7 0
-25 -8 0
-26 -9 0
-27 -1 0
-19 -29 0
-20 -30 0
-21 -31 0
-22 -32 0
-23 -33 0
-24 -34 0
-25 -35 0
-26 -36 0
-27 -28 0
-19 -38 0
-20 -39 0
-21 -40 0
-22 -41 0
-23 -42 0
-24 -43 0
-25 -44 0
-26 -45 0
-27 -37 0
-19 -65 0
-20 -66 0
-21 -67 0
-22 -68 0
-23 -69 0
-24 -70 0
-25 -71 0
-26 -72 0
-27 -64 0
-19 -74 0
-20 -75 0
-21 -76 0
-22 -77 0
-23 -78 0
-24 -79 0
-25 -80 0
-26 -81 0
-27 -73 0
-28 -2 0
-29 -3 0
-30 -4 0
-31 -5 0
-32 -6 0
-33 -7 0
-34 -8 0
-35 -9 0
-36 -1 0
-28 -11 0
-29 -12 0
-30 -13 0
-31 -14 0
-32 -15 0
-33 -16 0
-34 -17 0
-35 -18 0
-36 -10 0
-28 -20 0
-29 -21 0
-30 -22 0
-31 -23 0
-32 -24 0
-33 -25 0
-34 -26 0
-35 -27 0
-36 -19 0
-28 -56 0
-29 -57 0
-30 -58 0
-31 -59 0
-32 -60 0
-33 -61 0
-34 -62 0
-35 -63 0
-36 -55 0
-28 -74 0
-29 -75 0
-30 -76 0
-31 -77 0
-32 -78 0
-33 -79 0
-34 -80 0
-35 -81 0
-36 -73 0
-37 -11 0
-38 -12 0
-39 -13 0
-40 -14 0
-41 -15 0
-42 -16 0
-43 -17 0
-44 -18 0
-45 -10 0
-37 -20 0
-38 -21 0
-39 -22 0
-40 -23 0
-41 -24 0
-42 -25 0
-43 -26 0
-44 -27 0
-45 -19 0
-37 -29 0
-38 -30 0
-39 -31 0
-40 -32 0
-41 -33 0
-42 -34 0
-43 -35 0
-44 -36 0
-45 -28 0
-37 -65 0
-38 -66 0
-39 -67 0
-40 -68 0
-41 -69 0
-42 -70 0
-43 -71 0
-44 -72 0
-45 -64 0
-37 -74 0
-38 -75 0
-39 -76 0
-40 -77 0
-41 -78 0
-42 -79 0
-43 -80 0
-44 -81 0
-45 -73 0
-46 -2 0
-47 -3 0
-48 -4 0
-49 -5 0
-50 -6 0
-51 -7 0
-52 -8 0
-53 -9 0
-54 -1 0
-46 -20 0
-47 -21 0
-48 -22 0
-49 -23 0
-50 -24 0
-51 -25 0
-52 -26 0
-53 -27 0
-54 -19 0
-46 -29 0
-47 -30 0
-48 -31 0
-49 -32 0
-50 -33 0
-51 -34 0
-52 -35 0
-53 -36 0
-54 -28 0
-46 -38 0
-47 -39 0
-48 -40 0
-49 -41 0
-50 -42 0
-51 -43 0
-52 -44 0
-53 -45 0
-54 -37 0
-46 -56 0
-47 -57 0
-48 -58 0
-49 -59 0
-50 -60 0
-51 -61 0
-52 -62 0
-53 -63 0
-54 -55 0
-55 -2 0
-56 -3 0
-57 -4 0
-58 -5 0
-59 -6 0
-60 -7 0
-61 -8 0
-62 -9 0
-63 -1 0
-55 -11 0
-56 -12 0
-57 -13 0
-58 -14 0
-59 -15 0
-60 -16 0
-61 -17 0
-62 -18 0
-63 -10 0
-55 -20 0
-56 -21 0
-57 -22 0
-58 -23 0
-59 -24 0
-60 -25 0
-61 -26 0
-62 -27 0
-63 -19 0
-55 -29 0
-56 -30 0
-57 -31 0
-58 -32 0
-59 -33 0
-60 -34 0
-61 -35 0
-62 -36 0
-63 -28 0
-55 -38 0
-56 -39 0
-57 -40 0
-58 -41 0
-59 -42 0
-60 -43 0
-61 -44 0
-62 -45 0
-63 -37 0
-55 -47 0
-56 -48 0
-57 -49 0
-58 -50 0
-59 -51 0
-60 -52 0
-61 -53 0
-62 -54 0
-63 -46 0
-55 -65 0
-56 -66 0
-57 -67 0
-58 -68 0
-59 -69 0
-60 -70 0
-61 -71 0
-62 -72 0
-63 -64 0
-64 -2 0
-65 -3 0
-66 -4 0
-67 -5 0
-68 -6 0
-69 -7 0
-70 -8 0
-71 -9 0
-72 -1 0
-64 -11 0
-65 -12 0
-66 -13 0
-67 -14 0
-68 -15 0
-69 -16 0
-70 -17 0
-71 -18 0
-72 -10 0
-64 -20 0
-65 -21 0
-66 -22 0
-67 -23 0
-68 -24 0
-69 -25 0
-70 -26 0
-71 -27 0
-72 -19 0
-64 -29 0
-65 -30 0
-66 -31 0
-67 -32 0
-68 -33 0
-69 -34 0
-70 -35 0
-71 -36 0
-72 -28 0
-64 -38 0
-65 -39 0
-66 -40 0
-67 -41 0
-68 -42 0
-69 -43 0
-70 -44 0
-71 -45 0
-72 -37 0
-64 -47 0
-65 -48 0
-66 -49 0
-67 -50 0
-68 -51 0
-69 -52 0
-70 -53 0
-71 -54 0
-72 -46 0
-64 -56 0
-65 -57 0
-66 -58 0
-67 -59 0
-68 -60 0
-69 -61 0
-70 -62 0
-71 -63 0
-72 -55 0
-64 -74 0
-65 -75 0
-66 -76 0
-67 -77 0
-68 -78 0
-69 -79 0
-70 -80 0
-71 -81 0
-72 -73 0
-73 -2 0
-74 -3 0
-75 -4 0
-76 -5 0
-77 -6 0
-78 -7 0
-79 -8 0
-80 -9 0
-81 -1 0
-73 -11 0
-74 -12 0
-75 -13 0
-76 -14 0
-77 -15 0
-78 -16 0
-79 -17 0
-80 -18 0
-81 -10 0
-73 -20 0
-74 -21 0
-75 -22 0
-76 -23 0
-77 -24 0
-78 -25 0
-79 -26 0
-80 -27 0
-81 -19 0
-73 -29 0
-74 -30 0
-75 -31 0
-76 -32 0
-77 -33 0
-78 -34 0
-79 -35 0
-80 -36 0
-81 -28 0
-73 -38 0
-74 -39 0
-75 -40 0
-76 -41 0
-77 -42 0
-78 -43 0
-79 -44 0
-80 -45 0
-81 -37 0
-73 -47 0
-74 -48 0
-75 -49 0
-76 -50 0
-77 -51 0
-78 -52 0
-79 -53 0
-80 -54 0
-81 -46 0
-73 -56 0
-74 -57 0
-75 -58 0
-76 -59 0
-77 -60 0
-78 -61 0
-79 -62 0
-80 -63 0
-81 -55 0
-73 -65 0
-74 -66 0
-75 -67 0
-76 -68 0
-77 -69 0
-78 -70 0
-79 -71 0
-80 -72 0
-81 -64 0
-1 -11 0
-2 -12 0
-3 -13 0
-4 -14 0
-5 -15 0
-6 -16 0
-7 -17 0
-8 -18 0
-9 -10 0
-1 -20 0
-2 -21 0
-3 -22 0
-4 -23 0
-5 -24 0
-6 -25 0
-7 -26 0
-8 -27 0
-9 -19 0
-1 -29 0
-2 -30 0
-3 -31 0
-4 -32 0
-5 -33 0
-6 -34 0
-7 -35 0
-8 -36 0
-9 -28 0
-1 -38 0
-2 -39 0
-3 -40 0
-4 -41 0
-5 -42 0
-6 -43 0
-7 -44 0
-8 -45 0
-9 -37 0
-1 -47 0
-2 -48 0
-3 -49 0
-4 -50 0
-5 -51 0
-6 -52 0
-7 -53 0
-8 -54 0
-9 -46 0
-1 -56 0
-2 -57 0
-3 -58 0
-4 -59 0
-5 -60 0
-6 -61 0
-7 -62 0
-8 -63 0
-9 -55 0
-1 -65 0
-2 -66 0
-3 -67 0
-4 -68 0
-5 -69 0
-6 -70 0
-7 -71 0
-8 -72 0
-9 -64 0
-1 -74 0
-2 -75 0
-3 -76 0
-4 -77 0
-5 -78 0
-6 -79 0
-7 -80 0
-8 -81 0
-9 -73 0
-10 -2 0
-11 -3 0
-12 -4 0
-13 -5 0
-14 -6 0
-15 -7 0
-16 -8 0
-17 -9 0
-18 -1 0
-10 -20 0
-11 -21 0
-12 -22 0
-13 -23 0
-14 -24 0
-15 -25 0
-16 -26 0
-17 -27 0
-18 -19 0
-10 -29 0
-11 -30 0
-12 -31 0
-13 -32 0
-14 -33 0
-15 -34 0
-16 -35 0
-17 -36 0
-18 -28 0
-10 -38 0
-11 -39 0
-12 -40 0
-13 -41 0
-14 -42 0
-15 -43 0
-16 -44 0
-17 -45 0
-18 -37 0
-10 -47 0
-11 -48 0
-12 -49 0
-13 -50 0
-14 -51 0
-15 -52 0
-16 -53 0
-17 -54 0
-18 -46 0
-10 -56 0
-11 -57 0
-12 -58 0
-13 -59 0
-14 -60 0
-15 -61 0
-16 -62 0
-17 -63 0
-18 -55 0
-10 -65 0
-11 -66 0
-12 -67 0
-13 -68 0
-14 -69 0
-15 -70 0
-16 -71 0
-17 -72 0
-18 -64 0
-10 -74 0
-11 -75 0
-12 -76 0
-13 -77 0
-14 -78 0
-15 -79 0
-16 -80 0
-17 -81 0
-18 -73 0
-19 -2 0
-20 -3 0
-21 -4 0
-22 -5 0
-23 -6 0
-24 -7 0
-25 -8 0
-26 -9 0
-27 -1 0
-19 -11 0
-20 -12 0
-21 -13 0
-22 -14 0
-23 -15 0
-24 -16 0
-25 -17 0
-26 -18 0
-27 -10 0
-19 -29 0
-20 -30 0
-21 -31 0
-22 -32 0
-23 -33 0
-24 -34 0
-25 -35 0
-26 -36 0
-27 -28 0
-19 -38 0
-20 -39 0
-21 -40 0
-22 -41 0
-23 -42 0
-24 -43 0
-25 -44 0
-26 -45 0
-27 -37 0
-19 -47 0
-20 -48 0
-21 -49 0
-22 -50 0
-23 -51 0
-24 -52 0
-25 -53 0
-26 -54 0
-27 -46 0
-19 -56 0
-20 -57 0
-21 -58 0
-22 -59 0
-23 -60 0
-24 -61 0
-25 -62 0
-26 -63 0
-27 -55 0
-19 -65 0
-20 -66 0
-21 -67 0
-22 -68 0
-23 -69 0
-24 -70 0
-25 -71 0
-26 -72 0
-27 -64 0
-19 -74 0
-20 -75 0
-21 -76 0
-22 -77 0
-23 -78 0
-24 -79 0
-25 -80 0
-26 -81 0
-27 -73 0
-28 -2 0
-29 -3 0
-30 -4 0
-31 -5 0
-32 -6 0
-33 -7 0
-34 -8 0
-35 -9 0
-36 -1 0
-28 -11 0
-29 -12 0
-30 -13 0
-31 -14 0
-32 -15 0
-33 -16 0
-34 -17 0
-35 -18 0
-36 -10 0
-28 -20 0
-29 -21 0
-30 -22 0
-31 -23 0
-32 -24 0
-33 -25 0
-34 -26 0
-35 -27 0
-36 -19 0
-28 -38 0
-29 -39 0
-30 -40 0
-31 -41 0
-32 -42 0
-33 -43 0
-34 -44 0
-35 -45 0
-36 -37 0
-28 -47 0
-29 -48 0
-30 -49 0
-31 -50 0
-32 -51 0
-33 -52 0
-34 -53 0
-35 -54 0
-36 -46 0
-28 -56 0
-29 -57 0
-30 -58 0
-31 -59 0
-32 -60 0
-33 -61 0
-34 -62 0
-35 -63 0
-36 -55 0
-28 -65 0
-29 -66 0
-30 -67 0
-31 -68 0
-32 -69 0
-33 -70 0
-34 -71 0
-35 -72 0
-36 -64 0
-28 -74 0
-29 -75 0
-30 -76 0
-31 -77 0
-32 -78 0
-33 -79 0
-34 -80 0
-35 -81 0
-36 -73 0
-37 -2 0
-38 -3 0
-39 -4 0
-40 -5 0
-41 -6 0
-42 -7 0
-43 -8 0
-44 -9 0
-45 -1 0
-37 -11 0
-38 -12 0
-39 -13 0
-40 -14 0
-41 -15 0
-42 -16 0
-43 -17 0
-44 -18 0
-45 -10 0
-37 -20 0
-38 -21 0
-39 -22 0
-40 -23 0
-41 -24 0
-42 -25 0
-43 -26 0
-44 -27 0
-45 -19 0
-37 -29 0
-38 -30 0
-39 -31 0
-40 -32 0
-41 -33 0
-42 -34 0
-43 -35 0
-44 -36 0
-45 -28 0
-37 -47 0
-38 -48 0
-39 -49 0
-40 -50 0
-41 -51 0
-42 -52 0
-43 -53 0
-44 -54 0
-45 -46 0
-37 -56 0
-38 -57 0
-39 -58 0
-40 -59 0
-41 -60 0
-42 -61 0
-43 -62 0
-44 -63 0
-45 -55 0
-37 -65 0
-38 -66 0
-39 -67 0
-40 -68 0
-41 -69 0
-42 -70 0
-43 -71 0
-44 -72 0
-45 -64 0
-37 -74 0
-38 -75 0
-39 -76 0
-40 -77 0
-41 -78 0
-42 -79 0
-43 -80 0
-44 -81 0
-45 -73 0
-46 -2 0
-47 -3 0
-48 -4 0
-49 -5 0
-50 -6 0
-51 -7 0
-52 -8 0
-53 -9 0
-54 -1 0
-46 -11 0
-47 -12 0
-48 -13 0
-49 -14 0
-50 -15 0
-51 -16 0
-52 -17 0
-53 -18 0
-54 -10 0
-46 -20 0
-47 -21 0
-48 -22 0
-49 -23 0
-50 -24 0
-51 -25 0
-52 -26 0
-53 -27 0
-54 -19 0
-46 -29 0
-47 -30 0
-48 -31 0
-49 -32 0
-50 -33 0
-51 -34 0
-52 -35 0
-53 -36 0
-54 -28 0
-46 -38 0
-47 -39 0
-48 -40 0
-49 -41 0
-50 -42 0
-51 -43 0
-52 -44 0
-53 -45 0
-54 -37 0
-46 -56 0
-47 -57 0
-48 -58 0
-49 -59 0
-50 -60 0
-51 -61 0
-52 -62 0
-53 -63 0
-54 -55 0
-46 -65 0
-47 -66 0
-48 -67 0
-49 -68 0
-50 -69 0
-51 -70 0
-52 -71 0
-53 -72 0
-54 -64 0
-46 -74 0
-47 -75 0
-48 -76 0
-49 -77 0
-50 -78 0
-51 -79 0
-52 -80 0
-53 -81 0
-54 -73 0
-55 -2 0
-56 -3 0
-57 -4 0
-58 -5 0
-59 -6 0
-60 -7 0
-61 -8 0
-62 -9 0
-63 -1 0
-55 -11 0
-56 -12 0
-57 -13 0
-58 -14 0
-59 -15 0
-60 -16 0
-61 -17 0
-62 -18 0
-63 -10 0
-55 -20 0
-56 -21 0
-57 -22 0
-58 -23 0
-59 -24 0
-60 -25 0
-61 -26 0
-62 -27 0
-63 -19 0
-55 -29 0
-56 -30 0
-57 -31 0
-58 -32 0
-59 -33 0
-60 -34 0
-61 -35 0
-62 -36 0
-63 -28 0
-55 -38 0
-56 -39 0
-57 -40 0
-58 -41 0
-59 -42 0
-60 -43 0
-61 -44 0
-62 -45 0
-63 -37 0
-55 -47 0
-56 -48 0
-57 -49 0
-58 -50 0
-59 -51 0
-60 -52 0
-61 -53 0
-62 -54 0
-63 -46 0
-55 -65 0
-56 -66 0
-57 -67 0
-58 -68 0
-59 -69 0
-60 -70 0
-61 -71 0
-62 -72 0
-63 -64 0
-64 -2 0
-65 -3 0
-66 -4 0
-67 -5 0
-68 -6 0
-69 -7 0
-70 -8 0
-71 -9 0
-72 -1 0
-64 -20 0
-65 -21 0
-66 -22 0
-67 -23 0
-68 -24 0
-69 -25 0
-70 -26 0
-71 -27 0
-72 -19 0
-64 -29 0
-65 -30 0
-66 -31 0
-67 -32 0
-68 -33 0
-69 -34 0
-70 -35 0
-71 -36 0
-72 -28 0
-64 -47 0
-65 -48 0
-66 -49 0
-67 -50 0
-68 -51 0
-69 -52 0
-70 -53 0
-71 -54 0
-72 -46 0
-64 -56 0
-65 -57 0
-66 -58 0
-67 -59 0
-68 -60 0
-69 -61 0
-70 -62 0
-71 -63 0
-72 -55 0
-73 -20 0
-74 -21 0
-75 -22 0
-76 -23 0
-77 -24 0
-78 -25 0
-79 -26 0
-80 -27 0
-81 -19 0
-73 -29 0
-74 -30 0
-75 -31 0
-76 -32 0
-77 -33 0
-78 -34 0
-79 -35 0
-80 -36 0
-81 -28 0
-73 -38 0
-74 -39 0
-75 -40 0
-76 -41 0
-77 -42 0
-78 -43 0
-79 -44 0
-80 -45 0
-81 -37 0
-73 -56 0
-74 -57 0
-75 -58 0
-76 -59 0
-77 -60 0
-78 -61 0
-79 -62 0
-80 -63 0
-81 -55 0
-73 -65 0
-74 -66 0
-75 -67 0
-76 -68 0
-77 -69 0
-78 -70 0
-79 -71 0
-80 -72 0
-81 -64 0
